      66       34 
       4       54 
      52       48 
      36       56 
       9       38 
       8        3 
      15       68 
      61       76 
      60       55 
      72       27 
      16       26 
      30       25 
      32       13 
      46       42 
      21       62 
      63       57 
       7       11 
      53       24 
      17       49 
      41       50 
      58       70 
      33       31 
       1       71 
      67       69 
      39       28 
      23       51 
      45       10 
      77       37 
      73       44 
      59       20 
      18       19 
      78       12 
      81       14 
       2       47 
      65        6 
      80       29 
      75        5 
      35       74 
      43       64 
      79       40 
      22        0 
